Version identifier: 22.1.0.0 | 2022-03-09 | 1a383f8ce
CPXPARAM_Threads                                 1
CPXPARAM_MIP_Strategy_VariableSelect             3
CPXPARAM_TimeLimit                               599.99998344100004
1 of 1 MIP starts provided solutions.
MIP start 'm1' defined initial solution with objective 1.0000.
Tried aggregator 1 time.
MIP Presolve eliminated 18 rows and 0 columns.
MIP Presolve modified 235 coefficients.
Reduced MIP has 903 rows, 2100 columns, and 25030 nonzeros.
Reduced MIP has 2100 binaries, 0 generals, 0 SOSs, and 0 indicators.
Presolve time = 0.04 sec. (56.51 ticks)
Probing time = 0.01 sec. (7.99 ticks)
Tried aggregator 1 time.
Detecting symmetries...
MIP Presolve modified 14 coefficients.
Reduced MIP has 903 rows, 2100 columns, and 25429 nonzeros.
Reduced MIP has 2100 binaries, 0 generals, 0 SOSs, and 0 indicators.
Presolve time = 0.02 sec. (28.77 ticks)
Probing time = 0.01 sec. (8.05 ticks)
Clique table members: 593.
MIP emphasis: balance optimality and feasibility.
MIP search method: dynamic search.
Parallel mode: none, using 1 thread.
Root relaxation solution time = 0.11 sec. (114.42 ticks)

        Nodes                                         Cuts/
   Node  Left     Objective  IInf  Best Integer    Best Bound    ItCnt     Gap

*     0+    0                            1.0000     5050.0000              --- 
      0     0      100.0000   422        1.0000      100.0000     1362     --- 
      0     0      100.0000   393        1.0000      Cuts: 16     2378     --- 
      0     0      100.0000   277        1.0000   Cliques: 21     2788     --- 
      0     0      100.0000   437        1.0000      Cuts: 90     3556     --- 
      0     0      100.0000   174        1.0000    Cliques: 2     3916     --- 
      0     0      100.0000   267        1.0000      Cuts: 31     4626     --- 
Detecting symmetries...
*     0+    0                           97.0000      100.0000             3.09%
      0     0        cutoff             97.0000      100.0000     4626    3.09%
Detecting symmetries...
      0     2      100.0000    90       97.0000      100.0000     4626    3.09%
Elapsed time = 4.41 sec. (4518.93 ticks, tree = 0.01 MB, solutions = 2)
      1     3      100.0000   347       97.0000      100.0000     7670    3.09%
      3     5      100.0000   340       97.0000      100.0000     9893    3.09%
      5     7      100.0000   262       97.0000      100.0000    10465    3.09%
      8    10      100.0000   367       97.0000      100.0000    11441    3.09%
     10    12      100.0000   273       97.0000      100.0000    12447    3.09%
     12    14      100.0000   373       97.0000      100.0000    13326    3.09%
     15    17      100.0000   300       97.0000      100.0000    13957    3.09%
     18    20      100.0000   360       97.0000      100.0000    14626    3.09%
     21    23      100.0000   377       97.0000      100.0000    15148    3.09%
     30    32      100.0000   364       97.0000      100.0000    16896    3.09%
Elapsed time = 8.36 sec. (8508.31 ticks, tree = 0.22 MB, solutions = 2)
     40    42      100.0000   315       97.0000      100.0000    21107    3.09%
     49    51      100.0000   286       97.0000      100.0000    25265    3.09%
     60    59      100.0000   209       97.0000      100.0000    31807    3.09%
     74    69      100.0000   188       97.0000      100.0000    38286    3.09%
     90    79      100.0000   163       97.0000      100.0000    44999    3.09%
    106    88    infeasible             97.0000      100.0000    51950    3.09%
    120    94       98.0000   175       97.0000      100.0000    61079    3.09%
    132   100       98.0000   169       97.0000      100.0000    70385    3.09%
    155   107       98.0000   169       97.0000      100.0000    73532    3.09%
    180   111       98.0000   147       97.0000      100.0000    77873    3.09%
Elapsed time = 19.47 sec. (18910.57 ticks, tree = 0.75 MB, solutions = 2)
    204   114       98.0000   220       97.0000      100.0000    82636    3.09%
    229   119       98.0000   183       97.0000      100.0000    87534    3.09%
    256   122    infeasible             97.0000      100.0000    93418    3.09%
    278   132       98.0000   161       97.0000      100.0000    96632    3.09%
    298   144       98.0000   166       97.0000      100.0000    99294    3.09%
    321   148       98.0000   177       97.0000      100.0000   104914    3.09%
    340   151       98.0000   142       97.0000      100.0000   109451    3.09%
    360   151       98.0000   188       97.0000      100.0000   117003    3.09%
    384   151       98.0000   187       97.0000      100.0000   124535    3.09%
    403   151       98.0000   198       97.0000      100.0000   132846    3.09%
Elapsed time = 29.76 sec. (28734.05 ticks, tree = 1.11 MB, solutions = 2)
    426   154    infeasible             97.0000      100.0000   138411    3.09%
    442   160       98.0000    72       97.0000      100.0000   145898    3.09%
    458   163       98.0000   203       97.0000      100.0000   152451    3.09%
    470   167       98.0000   191       97.0000      100.0000   159347    3.09%
    492   177       98.0000   119       97.0000      100.0000   162163    3.09%
    505   182      100.0000   212       97.0000      100.0000   167759    3.09%
    516   189       98.0000   122       97.0000      100.0000   173664    3.09%
    532   199       98.0000   114       97.0000      100.0000   177497    3.09%
    543   200       98.0000    95       97.0000      100.0000   188671    3.09%
    557   202       98.0000    91       97.0000      100.0000   196198    3.09%
Elapsed time = 40.15 sec. (38600.17 ticks, tree = 1.51 MB, solutions = 2)
    572   203    infeasible             97.0000      100.0000   206751    3.09%
    586   205       98.0000    99       97.0000      100.0000   217426    3.09%
    600   205       98.0000   103       97.0000      100.0000   229577    3.09%
    611   207       98.0000   178       97.0000      100.0000   238956    3.09%
    618   206    infeasible             97.0000      100.0000   250452    3.09%
    638   212       98.0000   170       97.0000      100.0000   255635    3.09%
    660   216       98.0000   164       97.0000      100.0000   260029    3.09%
    676   221       98.0000   232       97.0000      100.0000   266432    3.09%
    696   227       98.0000   194       97.0000      100.0000   270553    3.09%
    711   227    infeasible             97.0000      100.0000   279616    3.09%
Elapsed time = 50.96 sec. (48685.00 ticks, tree = 1.51 MB, solutions = 2)
    729   233       98.0000   220       97.0000      100.0000   283114    3.09%
    750   240       98.0000   168       97.0000      100.0000   286779    3.09%
    774   244       98.0000   158       97.0000      100.0000   291434    3.09%
    791   250       98.0000   171       97.0000      100.0000   297211    3.09%
    805   255       98.0000   208       97.0000      100.0000   303601    3.09%
    823   263       98.0000   176       97.0000      100.0000   307684    3.09%
    841   270       98.0000   113       97.0000      100.0000   313187    3.09%
    861   272      100.0000   316       97.0000      100.0000   319130    3.09%
    870   279       98.0000   204       97.0000      100.0000   325849    3.09%
    883   282    infeasible             97.0000      100.0000   331991    3.09%
Elapsed time = 61.65 sec. (58689.29 ticks, tree = 1.56 MB, solutions = 2)
    900   285      100.0000   288       97.0000      100.0000   337671    3.09%
    906   289       98.0000   267       97.0000      100.0000   346895    3.09%
    926   289    infeasible             97.0000      100.0000   352636    3.09%
    944   297       98.0000   205       97.0000      100.0000   356520    3.09%
    963   298      100.0000   290       97.0000      100.0000   361707    3.09%
    970   301       98.0000   180       97.0000      100.0000   370806    3.09%
    988   305      100.0000   379       97.0000      100.0000   375917    3.09%
    997   314      100.0000   377       97.0000      100.0000   377306    3.09%
   1002   319      100.0000   403       97.0000      100.0000   380038    3.09%
   1008   325      100.0000   375       97.0000      100.0000   384426    3.09%
Elapsed time = 72.22 sec. (68854.08 ticks, tree = 1.59 MB, solutions = 2)
   1018   335      100.0000   309       97.0000      100.0000   386526    3.09%
   1023   339      100.0000   208       97.0000      100.0000   396457    3.09%
   1030   343       99.0000   214       97.0000      100.0000   403915    3.09%
   1036   346       99.2148   246       97.0000      100.0000   415734    3.09%
   1041   349      100.0000   161       97.0000      100.0000   421922    3.09%
   1049   354      100.0000   160       97.0000      100.0000   430495    3.09%
   1059   360       99.0000   190       97.0000      100.0000   437412    3.09%
   1068   368       99.0000   187       97.0000      100.0000   443496    3.09%
   1079   376       98.0000   183       97.0000      100.0000   449737    3.09%
   1087   380    infeasible             97.0000      100.0000   455371    3.09%
Elapsed time = 83.34 sec. (79293.74 ticks, tree = 1.88 MB, solutions = 2)
   1099   384       98.0000   215       97.0000      100.0000   465272    3.09%
   1111   392       98.0000   180       97.0000      100.0000   471295    3.09%
   1124   397       98.0000   197       97.0000      100.0000   477224    3.09%
   1149   400       98.0000   196       97.0000      100.0000   480493    3.09%
   1163   402       98.0000   258       97.0000      100.0000   488533    3.09%
   1183   404       98.0000   216       97.0000      100.0000   493087    3.09%
   1204   403       98.0000   225       97.0000      100.0000   500828    3.09%
   1221   408    infeasible             97.0000      100.0000   505446    3.09%
   1229   411       99.0000   274       97.0000      100.0000   512329    3.09%
   1238   419       98.0000   237       97.0000      100.0000   516916    3.09%
Elapsed time = 93.97 sec. (89323.42 ticks, tree = 2.15 MB, solutions = 2)
   1254   435       98.0000   263       97.0000      100.0000   517079    3.09%
   1269   450       98.0000   213       97.0000      100.0000   517611    3.09%
   1285   466       98.0000   212       97.0000      100.0000   518323    3.09%
   1301   480       98.0000   140       97.0000      100.0000   519919    3.09%
   1314   483       98.0000   209       97.0000      100.0000   528329    3.09%
   1335   484       98.0000   203       97.0000      100.0000   534469    3.09%
   1356   487       98.0000   194       97.0000      100.0000   539255    3.09%
   1366   491       98.0000   251       97.0000      100.0000   545776    3.09%
   1374   496       99.0000   204       97.0000      100.0000   552842    3.09%
   1421   521       99.6876   261       97.0000      100.0000   582741    3.09%
Elapsed time = 107.41 sec. (102197.32 ticks, tree = 3.10 MB, solutions = 2)
   1448   535      100.0000   163       97.0000      100.0000   594737    3.09%

Performing restart 1

Repeating presolve.
Tried aggregator 1 time.
MIP Presolve eliminated 0 rows and 97 columns.
MIP Presolve modified 1 coefficients.
Reduced MIP has 903 rows, 2003 columns, and 18151 nonzeros.
Reduced MIP has 2003 binaries, 0 generals, 0 SOSs, and 0 indicators.
Presolve time = 0.01 sec. (9.70 ticks)
Tried aggregator 1 time.
Reduced MIP has 903 rows, 2003 columns, and 18151 nonzeros.
Reduced MIP has 2003 binaries, 0 generals, 0 SOSs, and 0 indicators.
Presolve time = 0.01 sec. (10.49 ticks)
Represolve time = 0.15 sec. (72.33 ticks)
   1451     0      100.0000   222       97.0000      Cuts: 15   600583    3.09%
   1451     0      100.0000   230       97.0000     Cuts: 168   601280    3.09%
   1451     0      100.0000   117       97.0000   ZeroHalf: 2   601423    3.09%
   1451     0      100.0000   232       97.0000     Cuts: 140   602080    3.09%
   1451     0      100.0000   231       97.0000      Cuts: 30   602472    3.09%
   1451     0      100.0000   233       97.0000      Cuts: 39   602944    3.09%
   1451     2      100.0000   121       97.0000      100.0000   602944    3.09%
   1483    34      100.0000   226       97.0000      100.0000   615516    3.09%
   1522    63      100.0000   262       97.0000      100.0000   633337    3.09%
   1551    86      100.0000   147       97.0000      100.0000   641813    3.09%
   1636   115       99.0000   137       97.0000      100.0000   665117    3.09%
   1744   135       98.0000   120       97.0000      100.0000   684991    3.09%
   1848   142       98.0000   165       97.0000      100.0000   704660    3.09%
   1943   149       98.0000   137       97.0000      100.0000   725337    3.09%
   2037   161       99.0000   164       97.0000      100.0000   746026    3.09%
Elapsed time = 156.87 sec. (148626.20 ticks, tree = 1.30 MB, solutions = 2)
   2112   175       99.0000   162       97.0000      100.0000   769819    3.09%
   2201   185       98.0000   173       97.0000      100.0000   792335    3.09%
   2273   210       99.0000   222       97.0000      100.0000   814156    3.09%
   2350   284       98.0000   121       97.0000      100.0000   816779    3.09%
   2432   349       98.0000    87       97.0000      100.0000   823941    3.09%
   2508   373       98.0000   127       97.0000      100.0000   843889    3.09%
   2566   396       99.0000   194       97.0000      100.0000   864348    3.09%
   2638   429       98.0000   130       97.0000      100.0000   882350    3.09%
   2725   465      100.0000    83       97.0000      100.0000   899399    3.09%
   2814   485       98.0000   102       97.0000      100.0000   929542    3.09%
Elapsed time = 197.90 sec. (187135.03 ticks, tree = 4.10 MB, solutions = 2)
   2925   501       99.0000   152       97.0000      100.0000   957259    3.09%
   3017   531       99.0000   190       97.0000      100.0000   987860    3.09%
   3116   548       99.9508   161       97.0000      100.0000  1023072    3.09%
   3194   581       98.0000   129       97.0000      100.0000  1048738    3.09%
   3274   652       99.0000   204       97.0000      100.0000  1053079    3.09%
   3344   720       99.0000   231       97.0000      100.0000  1054250    3.09%
   3413   788       98.0000   134       97.0000      100.0000  1056976    3.09%
   3492   859       98.0000   145       97.0000      100.0000  1060429    3.09%
   3572   890       98.0000    86       97.0000      100.0000  1077887    3.09%
   3655   905      100.0000   124       97.0000      100.0000  1101755    3.09%
Elapsed time = 239.07 sec. (225647.66 ticks, tree = 7.87 MB, solutions = 2)
   3704   936       99.0000   152       97.0000      100.0000  1133657    3.09%
   3795   968       99.0000   214       97.0000      100.0000  1152407    3.09%
   3889   994       98.0000   142       97.0000      100.0000  1169603    3.09%
   3985  1012       99.0000   146       97.0000      100.0000  1187860    3.09%
   4094  1023       99.6667   132       97.0000      100.0000  1207000    3.09%
   4189  1047       98.0000   123       97.0000      100.0000  1227737    3.09%
   4294  1078       98.0000   149       97.0000      100.0000  1244114    3.09%
   4408  1087       99.0000   149       97.0000      100.0000  1265604    3.09%
   4480  1135       99.0000   202       97.0000      100.0000  1277788    3.09%
   4557  1174       99.0000   131       97.0000      100.0000  1289449    3.09%
Elapsed time = 280.06 sec. (264039.40 ticks, tree = 10.32 MB, solutions = 2)
   4656  1188      100.0000    72       97.0000      100.0000  1312364    3.09%
   4745  1229       98.0000   129       97.0000      100.0000  1330739    3.09%
   4844  1248       98.0000   133       97.0000      100.0000  1354019    3.09%
   4902  1277       99.0000   163       97.0000      100.0000  1385165    3.09%
   4974  1312       98.0000   151       97.0000      100.0000  1409755    3.09%
   5077  1337       98.0000   109       97.0000      100.0000  1428036    3.09%
   5175  1350       99.0000   180       97.0000      100.0000  1450304    3.09%
   5268  1375       98.0000   128       97.0000      100.0000  1471987    3.09%
   5363  1393       99.0000   157       97.0000      100.0000  1492104    3.09%
   5435  1437       99.0000   110       97.0000      100.0000  1512565    3.09%
Elapsed time = 321.22 sec. (302389.07 ticks, tree = 12.53 MB, solutions = 2)
   5514  1469       98.0000    84       97.0000      100.0000  1535027    3.09%
   5586  1519       99.0000   121       97.0000      100.0000  1553284    3.09%
   5666  1536       98.0000    99       97.0000      100.0000  1581646    3.09%
   5746  1556       99.0000   131       97.0000      100.0000  1607406    3.09%
   5822  1585       99.0000   131       97.0000      100.0000  1631808    3.09%
   5892  1601       99.0000   133       97.0000      100.0000  1663310    3.09%
   5961  1638       99.0000   129       97.0000      100.0000  1685251    3.09%
   6020  1685       99.0000   138       97.0000      100.0000  1702077    3.09%
   6093  1718       99.0000   102       97.0000      100.0000  1727697    3.09%
   6186  1736    infeasible             97.0000      100.0000  1750616    3.09%
Elapsed time = 363.16 sec. (340893.44 ticks, tree = 15.23 MB, solutions = 2)
   6262  1765       98.0000    90       97.0000      100.0000  1774606    3.09%
   6343  1790       98.0000    58       97.0000      100.0000  1798801    3.09%
   6416  1825       98.0000   114       97.0000      100.0000  1823433    3.09%
   6493  1847       98.0000   132       97.0000      100.0000  1849912    3.09%
   6565  1877    infeasible             97.0000      100.0000  1877691    3.09%
   6659  1914       99.0000   174       97.0000      100.0000  1893643    3.09%
   6743  1985       98.0000   122       97.0000      100.0000  1900696    3.09%
   6810  2021       98.0000   137       97.0000      100.0000  1928055    3.09%
   6888  2036      100.0000    60       97.0000      100.0000  1959031    3.09%
   6951  2072        cutoff             97.0000      100.0000  1987025    3.09%
Elapsed time = 404.54 sec. (379234.21 ticks, tree = 18.33 MB, solutions = 2)
   7038  2092    infeasible             97.0000      100.0000  2013105    3.09%
   7114  2112      100.0000    58       97.0000      100.0000  2042444    3.09%
   7186  2140       98.0000   104       97.0000      100.0000  2070118    3.09%
   7276  2156      100.0000    56       97.0000      100.0000  2097038    3.09%
   7351  2192       99.0000   109       97.0000      100.0000  2118547    3.09%
   7431  2204       98.0000    91       97.0000      100.0000  2148044    3.09%
   7489  2254       98.0000   172       97.0000      100.0000  2162335    3.09%
   7555  2285       99.0000   151       97.0000      100.0000  2186552    3.09%
   7643  2320       98.0000    43       97.0000      100.0000  2208993    3.09%
   7723  2353    infeasible             97.0000      100.0000  2229908    3.09%
Elapsed time = 451.10 sec. (422015.42 ticks, tree = 20.87 MB, solutions = 2)
   7797  2383        cutoff             97.0000      100.0000  2257942    3.09%
   7884  2407       99.0000   178       97.0000      100.0000  2282919    3.09%
   7964  2435       98.0000    94       97.0000      100.0000  2306327    3.09%
   8040  2464       98.0000   117       97.0000      100.0000  2332127    3.09%
   8118  2505       99.0000   145       97.0000      100.0000  2352542    3.09%
   8182  2558    infeasible             97.0000      100.0000  2367899    3.09%
   8264  2584       98.0000   142       97.0000      100.0000  2391893    3.09%
   8347  2621        cutoff             97.0000      100.0000  2415715    3.09%
   8422  2646    infeasible             97.0000      100.0000  2443139    3.09%
   8494  2681    infeasible             97.0000      100.0000  2466183    3.09%
Elapsed time = 493.10 sec. (460568.95 ticks, tree = 23.83 MB, solutions = 2)
   8577  2703    infeasible             97.0000      100.0000  2490129    3.09%
   8637  2719      100.0000    77       97.0000      100.0000  2522761    3.09%
   8704  2747      100.0000    78       97.0000      100.0000  2547541    3.09%
   8777  2807       99.0000   105       97.0000      100.0000  2564110    3.09%
   8851  2839    infeasible             97.0000      100.0000  2591150    3.09%
   8923  2858       98.0000   116       97.0000      100.0000  2621621    3.09%
   8989  2876       98.0000   118       97.0000      100.0000  2652757    3.09%
   9050  2913       98.0000   104       97.0000      100.0000  2674575    3.09%
   9122  2943       99.0000   196       97.0000      100.0000  2703004    3.09%
   9207  2959       98.0000    90       97.0000      100.0000  2729922    3.09%
Elapsed time = 535.25 sec. (499005.29 ticks, tree = 26.31 MB, solutions = 2)
   9275  2976       98.0000   102       97.0000      100.0000  2757667    3.09%
   9346  2995       99.0000   124       97.0000      100.0000  2786763    3.09%
Starting limited solution polishing.
   9412  3048       99.0000   112       97.0000      100.0000  2800105    3.09%
   9485  3077    infeasible             97.0000      100.0000  2826936    3.09%
   9565  3112       99.9016   146       97.0000      100.0000  2851115    3.09%
   9633  3161       99.0000   107       97.0000      100.0000  2868282    3.09%
   9709  3176       98.0000   108       97.0000      100.0000  2896537    3.09%
   9777  3194       99.0000    93       97.0000      100.0000  2922838    3.09%
   9852  3220       98.0000   109       97.0000      100.0000  2948712    3.09%
   9927  3257       99.0000   113       97.0000      100.0000  2972407    3.09%
Elapsed time = 577.34 sec. (537385.69 ticks, tree = 28.98 MB, solutions = 2)
   9991  3291      100.0000    63       97.0000      100.0000  2992456    3.09%
  10056  3350       98.0000   102       97.0000      100.0000  3003277    3.09%
  10123  3394       99.0000   117       97.0000      100.0000  3021198    3.09%
  10202  3418       98.0000   128       97.0000      100.0000  3044218    3.09%
  10263  3437       98.0000   151       97.0000      100.0000  3072936    3.09%

Clique cuts applied:  122
Zero-half cuts applied:  6
Gomory fractional cuts applied:  1

Root node processing (before b&c):
  Real time             =    4.40 sec. (4508.15 ticks)
Sequential b&c:
  Real time             =  595.60 sec. (553441.56 ticks)
                          ------------
Total (root+branch&cut) =  600.00 sec. (557949.71 ticks)
Primal:	97
Dual:	100
Status:	Feasible
Time:	599.96
Sequence:
	12
	4
	2
	13
	1
	2
	13
	18
	2
	8
	12
	1
	5
	16
	11
	5
	19
	11
	6
	8
	14
	0
	8
	11
	19
	6
	11
	17
	6
	11
	17
	6
	11
	17
	6
	11
	17
	6
	11
	17
	4
	11
	5
	0
	14
	8
	18
	12
	15
	1
	0
	15
	7
	16
	15
	7
	16
	15
	18
	7
	10
	3
	7
	10
	4
	6
	13
	16
	9
	13
	16
	3
	15
	12
	18
	2
	12
	1
	4
	10
	7
	3
	10
	7
	3
	10
	7
	3
	10
	7
	18
	0
	13
	2
	3
	12
	15
